p cnf 361 1
361 0
w 1 0.443074
w 2 1 0
w 2 -1 1
w 3 2 0
w 3 -2 1
w 4 3 1
w 4 -3 0
w 5 4 0.095532
w 5 -4 0.888286
w 6 5 0
w 6 -5 1
w 7 6 0
w 7 -6 1
w 8 7 1
w 8 -7 0
w 9 8 1
w 9 -8 0
w 10 9 0.956572
w 10 -9 0.497453
w 11 10 1
w 11 -10 0
w 12 11 0.165082
w 12 -11 0.613854
w 13 12 0.135782
w 13 -12 0.879112
w 14 13 0
w 14 -13 1
w 15 14 0
w 15 -14 1
w 16 15 0.437353
w 16 -15 0.101996
w 17 16 0
w 17 -16 1
w 18 17 0.145979
w 18 -17 0.574588
w 19 18 1
w 19 -18 0
w 20 1 0.187117
w 20 -1 0.959663
w 21 20 2 0
w 21 20 -2 1
w 21 -20 2 1
w 21 -20 -2 1
w 22 21 3 0
w 22 21 -3 0
w 22 -21 3 0
w 22 -21 -3 1
w 23 22 4 1
w 23 22 -4 1
w 23 -22 4 1
w 23 -22 -4 0
w 24 23 5 0.555607
w 24 23 -5 0.298801
w 24 -23 5 0.0292913
w 24 -23 -5 0.606054
w 25 24 6 0.023018
w 25 24 -6 0.752033
w 25 -24 6 0.559691
w 25 -24 -6 0.184357
w 26 25 7 0.412647
w 26 25 -7 0.371473
w 26 -25 7 0.63589
w 26 -25 -7 0.489747
w 27 26 8 0.220749
w 27 26 -8 0.198286
w 27 -26 8 0.819008
w 27 -26 -8 0.303061
w 28 27 9 0
w 28 27 -9 1
w 28 -27 9 1
w 28 -27 -9 1
w 29 28 10 0.248807
w 29 28 -10 0.0647192
w 29 -28 10 0.0309508
w 29 -28 -10 0.239355
w 30 29 11 0.958246
w 30 29 -11 0.794962
w 30 -29 11 0.224969
w 30 -29 -11 0.987537
w 31 30 12 1
w 31 30 -12 0
w 31 -30 12 1
w 31 -30 -12 1
w 32 31 13 0
w 32 31 -13 0
w 32 -31 13 0
w 32 -31 -13 1
w 33 32 14 0.18334
w 33 32 -14 0.685917
w 33 -32 14 0.870443
w 33 -32 -14 0.00234833
w 34 33 15 0.263588
w 34 33 -15 0.867653
w 34 -33 15 0.142374
w 34 -33 -15 0.0166723
w 35 34 16 0
w 35 34 -16 1
w 35 -34 16 0
w 35 -34 -16 0
w 36 35 17 0.383996
w 36 35 -17 0.674428
w 36 -35 17 0.299796
w 36 -35 -17 0.608965
w 37 36 18 0.700813
w 37 36 -18 0.819037
w 37 -36 18 0.672521
w 37 -36 -18 0.853862
w 38 37 19 0.867433
w 38 37 -19 0.68314
w 38 -37 19 0.771211
w 38 -37 -19 0.433818
w 39 20 1
w 39 -20 0
w 40 39 21 0.834224
w 40 39 -21 0.313812
w 40 -39 21 0.619507
w 40 -39 -21 0.823202
w 41 40 22 0.48716
w 41 40 -22 0.965577
w 41 -40 22 0.594072
w 41 -40 -22 0.88027
w 42 41 23 0.859551
w 42 41 -23 0.338099
w 42 -41 23 0.366991
w 42 -41 -23 0.364385
w 43 42 24 0.0414197
w 43 42 -24 0.664181
w 43 -42 24 0.33106
w 43 -42 -24 0.703385
w 44 43 25 0
w 44 43 -25 0
w 44 -43 25 1
w 44 -43 -25 1
w 45 44 26 1
w 45 44 -26 0
w 45 -44 26 1
w 45 -44 -26 1
w 46 45 27 0.294315
w 46 45 -27 0.884527
w 46 -45 27 0.267288
w 46 -45 -27 0.913822
w 47 46 28 0.844688
w 47 46 -28 0.400982
w 47 -46 28 0.673307
w 47 -46 -28 0.438759
w 48 47 29 1
w 48 47 -29 1
w 48 -47 29 0
w 48 -47 -29 0
w 49 48 30 0.341446
w 49 48 -30 0.732526
w 49 -48 30 0.326876
w 49 -48 -30 0.672507
w 50 49 31 0
w 50 49 -31 1
w 50 -49 31 1
w 50 -49 -31 1
w 51 50 32 0
w 51 50 -32 1
w 51 -50 32 1
w 51 -50 -32 1
w 52 51 33 1
w 52 51 -33 1
w 52 -51 33 0
w 52 -51 -33 1
w 53 52 34 0
w 53 52 -34 1
w 53 -52 34 0
w 53 -52 -34 1
w 54 53 35 0
w 54 53 -35 1
w 54 -53 35 1
w 54 -53 -35 1
w 55 54 36 0.876336
w 55 54 -36 0.863704
w 55 -54 36 0.255986
w 55 -54 -36 0.312248
w 56 55 37 0.0785902
w 56 55 -37 0.124065
w 56 -55 37 0.466299
w 56 -55 -37 0.640092
w 57 56 38 1
w 57 56 -38 1
w 57 -56 38 0
w 57 -56 -38 1
w 58 39 0.938162
w 58 -39 0.889598
w 59 58 40 0
w 59 58 -40 0
w 59 -58 40 0
w 59 -58 -40 1
w 60 59 41 1
w 60 59 -41 0
w 60 -59 41 0
w 60 -59 -41 1
w 61 60 42 1
w 61 60 -42 0
w 61 -60 42 1
w 61 -60 -42 0
w 62 61 43 1
w 62 61 -43 1
w 62 -61 43 0
w 62 -61 -43 1
w 63 62 44 1
w 63 62 -44 1
w 63 -62 44 0
w 63 -62 -44 1
w 64 63 45 0
w 64 63 -45 0
w 64 -63 45 1
w 64 -63 -45 1
w 65 64 46 0
w 65 64 -46 1
w 65 -64 46 0
w 65 -64 -46 0
w 66 65 47 1
w 66 65 -47 1
w 66 -65 47 0
w 66 -65 -47 0
w 67 66 48 0
w 67 66 -48 1
w 67 -66 48 1
w 67 -66 -48 1
w 68 67 49 1
w 68 67 -49 0
w 68 -67 49 0
w 68 -67 -49 1
w 69 68 50 0
w 69 68 -50 1
w 69 -68 50 1
w 69 -68 -50 1
w 70 69 51 0
w 70 69 -51 1
w 70 -69 51 1
w 70 -69 -51 0
w 71 70 52 1
w 71 70 -52 1
w 71 -70 52 0
w 71 -70 -52 1
w 72 71 53 0.351352
w 72 71 -53 0.507656
w 72 -71 53 0.203098
w 72 -71 -53 0.789037
w 73 72 54 0.0011362
w 73 72 -54 0.894959
w 73 -72 54 0.781484
w 73 -72 -54 0.81589
w 74 73 55 0.150124
w 74 73 -55 0.202934
w 74 -73 55 0.958067
w 74 -73 -55 0.901396
w 75 74 56 0.633934
w 75 74 -56 0.214522
w 75 -74 56 0.371808
w 75 -74 -56 0.66441
w 76 75 57 1
w 76 75 -57 0
w 76 -75 57 1
w 76 -75 -57 0
w 77 58 0
w 77 -58 1
w 78 77 59 0
w 78 77 -59 1
w 78 -77 59 1
w 78 -77 -59 0
w 79 78 60 0
w 79 78 -60 1
w 79 -78 60 0
w 79 -78 -60 1
w 80 79 61 1
w 80 79 -61 1
w 80 -79 61 0
w 80 -79 -61 1
w 81 80 62 0.33908
w 81 80 -62 0.604268
w 81 -80 62 0.799091
w 81 -80 -62 0.967646
w 82 81 63 1
w 82 81 -63 0
w 82 -81 63 0
w 82 -81 -63 1
w 83 82 64 0.688896
w 83 82 -64 0.213747
w 83 -82 64 0.0410152
w 83 -82 -64 0.717617
w 84 83 65 0.414153
w 84 83 -65 0.275567
w 84 -83 65 0.586816
w 84 -83 -65 0.201174
w 85 84 66 0
w 85 84 -66 0
w 85 -84 66 1
w 85 -84 -66 0
w 86 85 67 1
w 86 85 -67 1
w 86 -85 67 0
w 86 -85 -67 1
w 87 86 68 0.107204
w 87 86 -68 0.506189
w 87 -86 68 0.421614
w 87 -86 -68 0.906295
w 88 87 69 1
w 88 87 -69 1
w 88 -87 69 0
w 88 -87 -69 1
w 89 88 70 0.727448
w 89 88 -70 0.251323
w 89 -88 70 0.148303
w 89 -88 -70 0.768463
w 90 89 71 0.0493718
w 90 89 -71 0.182616
w 90 -89 71 0.244506
w 90 -89 -71 0.636187
w 91 90 72 1
w 91 90 -72 0
w 91 -90 72 0
w 91 -90 -72 0
w 92 91 73 1
w 92 91 -73 1
w 92 -91 73 1
w 92 -91 -73 0
w 93 92 74 0.658292
w 93 92 -74 0.051062
w 93 -92 74 0.120257
w 93 -92 -74 0.564587
w 94 93 75 0.780073
w 94 93 -75 0.484495
w 94 -93 75 0.338185
w 94 -93 -75 0.3425
w 95 94 76 1
w 95 94 -76 0
w 95 -94 76 1
w 95 -94 -76 1
w 96 77 0.616726
w 96 -77 0.0167122
w 97 96 78 0.252913
w 97 96 -78 0.400503
w 97 -96 78 0.443363
w 97 -96 -78 0.513015
w 98 97 79 0
w 98 97 -79 0
w 98 -97 79 0
w 98 -97 -79 1
w 99 98 80 1
w 99 98 -80 1
w 99 -98 80 1
w 99 -98 -80 0
w 100 99 81 0.923365
w 100 99 -81 0.395693
w 100 -99 81 0.288761
w 100 -99 -81 0.703437
w 101 100 82 0.626946
w 101 100 -82 0.0459375
w 101 -100 82 0.299238
w 101 -100 -82 0.692578
w 102 101 83 0.866592
w 102 101 -83 0.526674
w 102 -101 83 0.202523
w 102 -101 -83 0.483318
w 103 102 84 0.00979221
w 103 102 -84 0.736231
w 103 -102 84 0.943889
w 103 -102 -84 0.453155
w 104 103 85 1
w 104 103 -85 0
w 104 -103 85 1
w 104 -103 -85 0
w 105 104 86 1
w 105 104 -86 1
w 105 -104 86 0
w 105 -104 -86 0
w 106 105 87 0.887917
w 106 105 -87 0.30335
w 106 -105 87 0.245371
w 106 -105 -87 0.176678
w 107 106 88 1
w 107 106 -88 1
w 107 -106 88 0
w 107 -106 -88 0
w 108 107 89 1
w 108 107 -89 1
w 108 -107 89 0
w 108 -107 -89 0
w 109 108 90 0.566263
w 109 108 -90 0.904801
w 109 -108 90 0.510938
w 109 -108 -90 0.510152
w 110 109 91 1
w 110 109 -91 0
w 110 -109 91 0
w 110 -109 -91 1
w 111 110 92 0.0125251
w 111 110 -92 0.809474
w 111 -110 92 0.598517
w 111 -110 -92 0.136577
w 112 111 93 1
w 112 111 -93 0
w 112 -111 93 1
w 112 -111 -93 1
w 113 112 94 0
w 113 112 -94 0
w 113 -112 94 1
w 113 -112 -94 0
w 114 113 95 0
w 114 113 -95 1
w 114 -113 95 0
w 114 -113 -95 0
w 115 96 0
w 115 -96 1
w 116 115 97 1
w 116 115 -97 0
w 116 -115 97 1
w 116 -115 -97 1
w 117 116 98 0.334474
w 117 116 -98 0.00384761
w 117 -116 98 0.813738
w 117 -116 -98 0.914419
w 118 117 99 0
w 118 117 -99 0
w 118 -117 99 1
w 118 -117 -99 0
w 119 118 100 0.177443
w 119 118 -100 0.30548
w 119 -118 100 0.654698
w 119 -118 -100 0.378615
w 120 119 101 0.473823
w 120 119 -101 0.38341
w 120 -119 101 0.357397
w 120 -119 -101 0.717746
w 121 120 102 0.602203
w 121 120 -102 0.253059
w 121 -120 102 0.408281
w 121 -120 -102 0.742017
w 122 121 103 0.498417
w 122 121 -103 0.786633
w 122 -121 103 0.384036
w 122 -121 -103 0.0987048
w 123 122 104 0
w 123 122 -104 1
w 123 -122 104 1
w 123 -122 -104 0
w 124 123 105 0
w 124 123 -105 1
w 124 -123 105 0
w 124 -123 -105 1
w 125 124 106 0
w 125 124 -106 1
w 125 -124 106 1
w 125 -124 -106 1
w 126 125 107 0.325356
w 126 125 -107 0.950186
w 126 -125 107 0.301843
w 126 -125 -107 0.682753
w 127 126 108 0.18625
w 127 126 -108 0.284955
w 127 -126 108 0.920991
w 127 -126 -108 0.594531
w 128 127 109 0
w 128 127 -109 1
w 128 -127 109 0
w 128 -127 -109 1
w 129 128 110 0
w 129 128 -110 1
w 129 -128 110 0
w 129 -128 -110 0
w 130 129 111 0.972429
w 130 129 -111 0.405287
w 130 -129 111 0.0143262
w 130 -129 -111 0.832963
w 131 130 112 0.229126
w 131 130 -112 0.654627
w 131 -130 112 0.307479
w 131 -130 -112 0.749405
w 132 131 113 1
w 132 131 -113 1
w 132 -131 113 1
w 132 -131 -113 0
w 133 132 114 0.749108
w 133 132 -114 0.714005
w 133 -132 114 0.0424694
w 133 -132 -114 0.670099
w 134 115 1
w 134 -115 0
w 135 134 116 0
w 135 134 -116 0
w 135 -134 116 0
w 135 -134 -116 1
w 136 135 117 0.855556
w 136 135 -117 0.217969
w 136 -135 117 0.0817196
w 136 -135 -117 0.467754
w 137 136 118 0
w 137 136 -118 1
w 137 -136 118 0
w 137 -136 -118 0
w 138 137 119 0.677988
w 138 137 -119 0.562147
w 138 -137 119 0.460612
w 138 -137 -119 0.808978
w 139 138 120 0.535373
w 139 138 -120 0.890153
w 139 -138 120 0.315814
w 139 -138 -120 0.292887
w 140 139 121 0.0298193
w 140 139 -121 0.335356
w 140 -139 121 0.30936
w 140 -139 -121 0.338356
w 141 140 122 0
w 141 140 -122 1
w 141 -140 122 1
w 141 -140 -122 1
w 142 141 123 0
w 142 141 -123 1
w 142 -141 123 0
w 142 -141 -123 0
w 143 142 124 0.74243
w 143 142 -124 0.291193
w 143 -142 124 0.764707
w 143 -142 -124 0.997097
w 144 143 125 0
w 144 143 -125 1
w 144 -143 125 1
w 144 -143 -125 0
w 145 144 126 1
w 145 144 -126 1
w 145 -144 126 0
w 145 -144 -126 0
w 146 145 127 0.692936
w 146 145 -127 0.626627
w 146 -145 127 0.0904475
w 146 -145 -127 0.0312918
w 147 146 128 0
w 147 146 -128 1
w 147 -146 128 1
w 147 -146 -128 1
w 148 147 129 1
w 148 147 -129 0
w 148 -147 129 1
w 148 -147 -129 1
w 149 148 130 1
w 149 148 -130 0
w 149 -148 130 0
w 149 -148 -130 0
w 150 149 131 1
w 150 149 -131 1
w 150 -149 131 1
w 150 -149 -131 0
w 151 150 132 0.394472
w 151 150 -132 0.945236
w 151 -150 132 0.997303
w 151 -150 -132 0.0575886
w 152 151 133 1
w 152 151 -133 0
w 152 -151 133 0
w 152 -151 -133 1
w 153 134 0.894559
w 153 -134 0.422814
w 154 153 135 0.213831
w 154 153 -135 0.462592
w 154 -153 135 0.65706
w 154 -153 -135 0.706806
w 155 154 136 0.312118
w 155 154 -136 0.455205
w 155 -154 136 0.0339782
w 155 -154 -136 0.708522
w 156 155 137 0.51542
w 156 155 -137 0.869632
w 156 -155 137 0.433958
w 156 -155 -137 0.999262
w 157 156 138 0
w 157 156 -138 0
w 157 -156 138 1
w 157 -156 -138 0
w 158 157 139 0.326217
w 158 157 -139 0.933189
w 158 -157 139 0.127857
w 158 -157 -139 0.104608
w 159 158 140 0.990991
w 159 158 -140 0.973445
w 159 -158 140 0.465529
w 159 -158 -140 0.88555
w 160 159 141 1
w 160 159 -141 0
w 160 -159 141 0
w 160 -159 -141 0
w 161 160 142 0.70258
w 161 160 -142 0.987655
w 161 -160 142 0.261391
w 161 -160 -142 0.736558
w 162 161 143 0.207423
w 162 161 -143 0.251979
w 162 -161 143 0.565809
w 162 -161 -143 0.641382
w 163 162 144 1
w 163 162 -144 1
w 163 -162 144 1
w 163 -162 -144 0
w 164 163 145 0.0887052
w 164 163 -145 0.694378
w 164 -163 145 0.931299
w 164 -163 -145 0.216562
w 165 164 146 0.615012
w 165 164 -146 0.207553
w 165 -164 146 0.772431
w 165 -164 -146 0.0805409
w 166 165 147 1
w 166 165 -147 0
w 166 -165 147 1
w 166 -165 -147 1
w 167 166 148 0.998668
w 167 166 -148 0.730121
w 167 -166 148 0.762212
w 167 -166 -148 0.260059
w 168 167 149 1
w 168 167 -149 0
w 168 -167 149 0
w 168 -167 -149 0
w 169 168 150 0
w 169 168 -150 1
w 169 -168 150 1
w 169 -168 -150 1
w 170 169 151 1
w 170 169 -151 0
w 170 -169 151 1
w 170 -169 -151 1
w 171 170 152 0.775794
w 171 170 -152 0.680073
w 171 -170 152 0.6974
w 171 -170 -152 0.856335
w 172 153 0.866089
w 172 -153 0.955354
w 173 172 154 0.89363
w 173 172 -154 0.72991
w 173 -172 154 0.964325
w 173 -172 -154 0.62375
w 174 173 155 0
w 174 173 -155 1
w 174 -173 155 1
w 174 -173 -155 0
w 175 174 156 0.974708
w 175 174 -156 0.80073
w 175 -174 156 0.778984
w 175 -174 -156 0.0381519
w 176 175 157 1
w 176 175 -157 0
w 176 -175 157 1
w 176 -175 -157 0
w 177 176 158 0.42237
w 177 176 -158 0.674715
w 177 -176 158 0.520708
w 177 -176 -158 0.198164
w 178 177 159 1
w 178 177 -159 0
w 178 -177 159 1
w 178 -177 -159 0
w 179 178 160 1
w 179 178 -160 0
w 179 -178 160 0
w 179 -178 -160 0
w 180 179 161 0
w 180 179 -161 0
w 180 -179 161 0
w 180 -179 -161 1
w 181 180 162 1
w 181 180 -162 1
w 181 -180 162 0
w 181 -180 -162 1
w 182 181 163 0
w 182 181 -163 0
w 182 -181 163 1
w 182 -181 -163 1
w 183 182 164 1
w 183 182 -164 1
w 183 -182 164 1
w 183 -182 -164 0
w 184 183 165 0.743651
w 184 183 -165 0.585974
w 184 -183 165 0.0837652
w 184 -183 -165 0.753504
w 185 184 166 0.0615921
w 185 184 -166 0.493268
w 185 -184 166 0.737538
w 185 -184 -166 0.663169
w 186 185 167 0.0198667
w 186 185 -167 0.355175
w 186 -185 167 0.907548
w 186 -185 -167 0.994062
w 187 186 168 0.0646515
w 187 186 -168 0.768987
w 187 -186 168 0.136344
w 187 -186 -168 0.259907
w 188 187 169 0.362658
w 188 187 -169 0.924919
w 188 -187 169 0.644634
w 188 -187 -169 0.791167
w 189 188 170 1
w 189 188 -170 0
w 189 -188 170 1
w 189 -188 -170 1
w 190 189 171 0
w 190 189 -171 0
w 190 -189 171 1
w 190 -189 -171 1
w 191 172 0
w 191 -172 1
w 192 191 173 0
w 192 191 -173 1
w 192 -191 173 0
w 192 -191 -173 1
w 193 192 174 0
w 193 192 -174 1
w 193 -192 174 0
w 193 -192 -174 0
w 194 193 175 0.138422
w 194 193 -175 0.123013
w 194 -193 175 0.772456
w 194 -193 -175 0.714438
w 195 194 176 0
w 195 194 -176 1
w 195 -194 176 0
w 195 -194 -176 0
w 196 195 177 1
w 196 195 -177 0
w 196 -195 177 0
w 196 -195 -177 1
w 197 196 178 0.887891
w 197 196 -178 0.462004
w 197 -196 178 0.867339
w 197 -196 -178 0.209821
w 198 197 179 1
w 198 197 -179 1
w 198 -197 179 1
w 198 -197 -179 0
w 199 198 180 0.810851
w 199 198 -180 0.885021
w 199 -198 180 0.013264
w 199 -198 -180 0.180286
w 200 199 181 0.525813
w 200 199 -181 0.318708
w 200 -199 181 0.994702
w 200 -199 -181 0.298269
w 201 200 182 0
w 201 200 -182 1
w 201 -200 182 1
w 201 -200 -182 1
w 202 201 183 0.88691
w 202 201 -183 0.928437
w 202 -201 183 0.728865
w 202 -201 -183 0.206377
w 203 202 184 1
w 203 202 -184 1
w 203 -202 184 0
w 203 -202 -184 0
w 204 203 185 0
w 204 203 -185 0
w 204 -203 185 0
w 204 -203 -185 1
w 205 204 186 1
w 205 204 -186 0
w 205 -204 186 0
w 205 -204 -186 1
w 206 205 187 1
w 206 205 -187 1
w 206 -205 187 0
w 206 -205 -187 0
w 207 206 188 0.772511
w 207 206 -188 0.378878
w 207 -206 188 0.727462
w 207 -206 -188 0.164728
w 208 207 189 1
w 208 207 -189 0
w 208 -207 189 0
w 208 -207 -189 0
w 209 208 190 0.880756
w 209 208 -190 0.352283
w 209 -208 190 0.43066
w 209 -208 -190 0.293835
w 210 191 0.424702
w 210 -191 0.686309
w 211 210 192 0.854222
w 211 210 -192 0.833403
w 211 -210 192 0.87995
w 211 -210 -192 0.094594
w 212 211 193 0.787687
w 212 211 -193 0.515252
w 212 -211 193 0.769321
w 212 -211 -193 0.221237
w 213 212 194 0
w 213 212 -194 1
w 213 -212 194 1
w 213 -212 -194 1
w 214 213 195 0.191857
w 214 213 -195 0.182791
w 214 -213 195 0.286668
w 214 -213 -195 0.243496
w 215 214 196 0
w 215 214 -196 1
w 215 -214 196 0
w 215 -214 -196 0
w 216 215 197 0.194565
w 216 215 -197 0.796276
w 216 -215 197 0.510166
w 216 -215 -197 0.619266
w 217 216 198 1
w 217 216 -198 1
w 217 -216 198 0
w 217 -216 -198 0
w 218 217 199 0.181506
w 218 217 -199 0.163282
w 218 -217 199 0.0833345
w 218 -217 -199 0.950827
w 219 218 200 0
w 219 218 -200 0
w 219 -218 200 0
w 219 -218 -200 1
w 220 219 201 0.01809
w 220 219 -201 0.556938
w 220 -219 201 0.848148
w 220 -219 -201 0.304758
w 221 220 202 0.0954635
w 221 220 -202 0.926442
w 221 -220 202 0.301945
w 221 -220 -202 0.859369
w 222 221 203 0
w 222 221 -203 0
w 222 -221 203 1
w 222 -221 -203 1
w 223 222 204 0.707744
w 223 222 -204 0.16155
w 223 -222 204 0.146688
w 223 -222 -204 0.023732
w 224 223 205 0.714771
w 224 223 -205 0.205238
w 224 -223 205 0.700427
w 224 -223 -205 0.798105
w 225 224 206 1
w 225 224 -206 1
w 225 -224 206 1
w 225 -224 -206 0
w 226 225 207 1
w 226 225 -207 1
w 226 -225 207 0
w 226 -225 -207 1
w 227 226 208 0.383688
w 227 226 -208 0.671808
w 227 -226 208 0.160456
w 227 -226 -208 0.243056
w 228 227 209 0
w 228 227 -209 1
w 228 -227 209 0
w 228 -227 -209 1
w 229 210 0.0335922
w 229 -210 0.143652
w 230 229 211 0
w 230 229 -211 1
w 230 -229 211 0
w 230 -229 -211 0
w 231 230 212 0
w 231 230 -212 1
w 231 -230 212 0
w 231 -230 -212 1
w 232 231 213 1
w 232 231 -213 0
w 232 -231 213 1
w 232 -231 -213 0
w 233 232 214 0
w 233 232 -214 1
w 233 -232 214 1
w 233 -232 -214 1
w 234 233 215 0.343993
w 234 233 -215 0.548389
w 234 -233 215 0.847158
w 234 -233 -215 0.660189
w 235 234 216 0.173006
w 235 234 -216 0.64229
w 235 -234 216 0.815568
w 235 -234 -216 0.206598
w 236 235 217 0.932446
w 236 235 -217 0.263922
w 236 -235 217 0.466738
w 236 -235 -217 0.764094
w 237 236 218 0.847961
w 237 236 -218 0.393847
w 237 -236 218 0.945112
w 237 -236 -218 0.314128
w 238 237 219 0
w 238 237 -219 0
w 238 -237 219 1
w 238 -237 -219 0
w 239 238 220 0.751631
w 239 238 -220 0.693525
w 239 -238 220 0.606768
w 239 -238 -220 0.935168
w 240 239 221 0.353235
w 240 239 -221 0.279161
w 240 -239 221 0.547248
w 240 -239 -221 0.200393
w 241 240 222 0.392627
w 241 240 -222 0.373399
w 241 -240 222 0.58164
w 241 -240 -222 0.208195
w 242 241 223 0.367581
w 242 241 -223 0.140641
w 242 -241 223 0.84392
w 242 -241 -223 0.834319
w 243 242 224 0.370404
w 243 242 -224 0.68228
w 243 -242 224 0.298582
w 243 -242 -224 0.315516
w 244 243 225 0.45824
w 244 243 -225 0.453974
w 244 -243 225 0.199223
w 244 -243 -225 0.884846
w 245 244 226 1
w 245 244 -226 1
w 245 -244 226 0
w 245 -244 -226 0
w 246 245 227 0.918236
w 246 245 -227 0.691334
w 246 -245 227 0.850806
w 246 -245 -227 0.465483
w 247 246 228 0.790156
w 247 246 -228 0.85811
w 247 -246 228 0.265125
w 247 -246 -228 0.371795
w 248 229 0
w 248 -229 1
w 249 248 230 0.206946
w 249 248 -230 0.689042
w 249 -248 230 0.573696
w 249 -248 -230 0.111681
w 250 249 231 0
w 250 249 -231 0
w 250 -249 231 1
w 250 -249 -231 1
w 251 250 232 0.828936
w 251 250 -232 0.451607
w 251 -250 232 0.753349
w 251 -250 -232 0.0547885
w 252 251 233 1
w 252 251 -233 1
w 252 -251 233 0
w 252 -251 -233 1
w 253 252 234 0.212369
w 253 252 -234 0.812277
w 253 -252 234 0.357885
w 253 -252 -234 0.104096
w 254 253 235 0.215995
w 254 253 -235 0.369221
w 254 -253 235 0.974228
w 254 -253 -235 0.2823
w 255 254 236 0
w 255 254 -236 1
w 255 -254 236 0
w 255 -254 -236 0
w 256 255 237 0.962831
w 256 255 -237 0.543276
w 256 -255 237 0.0111916
w 256 -255 -237 0.337792
w 257 256 238 0.879695
w 257 256 -238 0.166728
w 257 -256 238 0.247267
w 257 -256 -238 0.633044
w 258 257 239 0
w 258 257 -239 1
w 258 -257 239 1
w 258 -257 -239 0
w 259 258 240 0.0880848
w 259 258 -240 0.16361
w 259 -258 240 0.796618
w 259 -258 -240 0.44597
w 260 259 241 0
w 260 259 -241 1
w 260 -259 241 0
w 260 -259 -241 0
w 261 260 242 0.851269
w 261 260 -242 0.0868826
w 261 -260 242 0.433512
w 261 -260 -242 0.754654
w 262 261 243 1
w 262 261 -243 0
w 262 -261 243 0
w 262 -261 -243 0
w 263 262 244 0.925326
w 263 262 -244 0.222005
w 263 -262 244 0.960386
w 263 -262 -244 0.55837
w 264 263 245 1
w 264 263 -245 0
w 264 -263 245 0
w 264 -263 -245 0
w 265 264 246 0.505441
w 265 264 -246 0.362199
w 265 -264 246 0.173259
w 265 -264 -246 0.773147
w 266 265 247 0.835225
w 266 265 -247 0.410073
w 266 -265 247 0.134527
w 266 -265 -247 0.77949
w 267 248 1
w 267 -248 0
w 268 267 249 1
w 268 267 -249 0
w 268 -267 249 0
w 268 -267 -249 0
w 269 268 250 0.293073
w 269 268 -250 0.788757
w 269 -268 250 0.226171
w 269 -268 -250 0.2184
w 270 269 251 0
w 270 269 -251 0
w 270 -269 251 1
w 270 -269 -251 0
w 271 270 252 1
w 271 270 -252 1
w 271 -270 252 0
w 271 -270 -252 0
w 272 271 253 1
w 272 271 -253 1
w 272 -271 253 0
w 272 -271 -253 1
w 273 272 254 0.60764
w 273 272 -254 0.181565
w 273 -272 254 0.608752
w 273 -272 -254 0.868983
w 274 273 255 0
w 274 273 -255 0
w 274 -273 255 1
w 274 -273 -255 0
w 275 274 256 0.362268
w 275 274 -256 0.407217
w 275 -274 256 0.73779
w 275 -274 -256 0.580668
w 276 275 257 0
w 276 275 -257 1
w 276 -275 257 0
w 276 -275 -257 1
w 277 276 258 0.965751
w 277 276 -258 0.420474
w 277 -276 258 0.639038
w 277 -276 -258 0.786529
w 278 277 259 0.924828
w 278 277 -259 0.780566
w 278 -277 259 0.0424619
w 278 -277 -259 0.971866
w 279 278 260 0.650102
w 279 278 -260 0.153432
w 279 -278 260 0.218579
w 279 -278 -260 0.519085
w 280 279 261 0.0403325
w 280 279 -261 0.404064
w 280 -279 261 0.554975
w 280 -279 -261 0.109528
w 281 280 262 0
w 281 280 -262 1
w 281 -280 262 0
w 281 -280 -262 0
w 282 281 263 0
w 282 281 -263 0
w 282 -281 263 1
w 282 -281 -263 0
w 283 282 264 0
w 283 282 -264 0
w 283 -282 264 1
w 283 -282 -264 0
w 284 283 265 1
w 284 283 -265 0
w 284 -283 265 0
w 284 -283 -265 0
w 285 284 266 0.862655
w 285 284 -266 0.18816
w 285 -284 266 0.814513
w 285 -284 -266 0.0812342
w 286 267 0.37092
w 286 -267 0.121567
w 287 286 268 0
w 287 286 -268 1
w 287 -286 268 1
w 287 -286 -268 0
w 288 287 269 0.563574
w 288 287 -269 0.796873
w 288 -287 269 0.755354
w 288 -287 -269 0.411293
w 289 288 270 0.165256
w 289 288 -270 0.131276
w 289 -288 270 0.755832
w 289 -288 -270 0.290605
w 290 289 271 0.406533
w 290 289 -271 0.0549927
w 290 -289 271 0.289271
w 290 -289 -271 0.902129
w 291 290 272 0.542099
w 291 290 -272 0.440187
w 291 -290 272 0.405289
w 291 -290 -272 0.404755
w 292 291 273 0.219802
w 292 291 -273 0.485989
w 292 -291 273 0.335592
w 292 -291 -273 0.590722
w 293 292 274 0.446901
w 293 292 -274 0.516616
w 293 -292 274 0.83865
w 293 -292 -274 0.580735
w 294 293 275 0.54154
w 294 293 -275 0.144309
w 294 -293 275 0.305978
w 294 -293 -275 0.296895
w 295 294 276 0.831583
w 295 294 -276 0.46215
w 295 -294 276 0.686878
w 295 -294 -276 0.587415
w 296 295 277 0.503887
w 296 295 -277 0.993948
w 296 -295 277 0.807748
w 296 -295 -277 0.793159
w 297 296 278 0.551956
w 297 296 -278 0.335258
w 297 -296 278 0.336264
w 297 -296 -278 0.957246
w 298 297 279 0.964611
w 298 297 -279 0.177048
w 298 -297 279 0.226002
w 298 -297 -279 0.300202
w 299 298 280 0.833558
w 299 298 -280 0.747104
w 299 -298 280 0.284386
w 299 -298 -280 0.672208
w 300 299 281 1
w 300 299 -281 0
w 300 -299 281 0
w 300 -299 -281 0
w 301 300 282 1
w 301 300 -282 1
w 301 -300 282 1
w 301 -300 -282 0
w 302 301 283 0
w 302 301 -283 0
w 302 -301 283 1
w 302 -301 -283 1
w 303 302 284 0
w 303 302 -284 0
w 303 -302 284 1
w 303 -302 -284 0
w 304 303 285 0.219547
w 304 303 -285 0.312948
w 304 -303 285 0.00957039
w 304 -303 -285 0.987317
w 305 286 1
w 305 -286 0
w 306 305 287 1
w 306 305 -287 0
w 306 -305 287 0
w 306 -305 -287 0
w 307 306 288 0
w 307 306 -288 1
w 307 -306 288 0
w 307 -306 -288 0
w 308 307 289 1
w 308 307 -289 1
w 308 -307 289 0
w 308 -307 -289 0
w 309 308 290 0.529228
w 309 308 -290 0.535093
w 309 -308 290 0.859995
w 309 -308 -290 0.87616
w 310 309 291 0
w 310 309 -291 1
w 310 -309 291 1
w 310 -309 -291 1
w 311 310 292 1
w 311 310 -292 0
w 311 -310 292 1
w 311 -310 -292 0
w 312 311 293 1
w 312 311 -293 1
w 312 -311 293 1
w 312 -311 -293 0
w 313 312 294 0.816836
w 313 312 -294 0.981047
w 313 -312 294 0.706633
w 313 -312 -294 0.332732
w 314 313 295 0
w 314 313 -295 1
w 314 -313 295 1
w 314 -313 -295 0
w 315 314 296 0
w 315 314 -296 1
w 315 -314 296 0
w 315 -314 -296 1
w 316 315 297 0
w 316 315 -297 0
w 316 -315 297 1
w 316 -315 -297 0
w 317 316 298 0
w 317 316 -298 1
w 317 -316 298 0
w 317 -316 -298 1
w 318 317 299 1
w 318 317 -299 0
w 318 -317 299 1
w 318 -317 -299 1
w 319 318 300 0.196583
w 319 318 -300 0.223484
w 319 -318 300 0.487672
w 319 -318 -300 0.529315
w 320 319 301 0.808488
w 320 319 -301 0.103493
w 320 -319 301 0.301208
w 320 -319 -301 0.255903
w 321 320 302 1
w 321 320 -302 0
w 321 -320 302 0
w 321 -320 -302 0
w 322 321 303 0.772735
w 322 321 -303 0.997232
w 322 -321 303 0.752343
w 322 -321 -303 0.00618475
w 323 322 304 1
w 323 322 -304 1
w 323 -322 304 0
w 323 -322 -304 0
w 324 305 0
w 324 -305 1
w 325 324 306 0.242981
w 325 324 -306 0.789923
w 325 -324 306 0.0967712
w 325 -324 -306 0.0240209
w 326 325 307 0.320255
w 326 325 -307 0.511693
w 326 -325 307 0.515822
w 326 -325 -307 0.823825
w 327 326 308 0
w 327 326 -308 0
w 327 -326 308 1
w 327 -326 -308 0
w 328 327 309 0.814495
w 328 327 -309 0.733053
w 328 -327 309 0.584206
w 328 -327 -309 0.315263
w 329 328 310 0.581439
w 329 328 -310 0.0676067
w 329 -328 310 0.511973
w 329 -328 -310 0.0208561
w 330 329 311 0
w 330 329 -311 0
w 330 -329 311 1
w 330 -329 -311 0
w 331 330 312 0.933179
w 331 330 -312 0.176806
w 331 -330 312 0.525117
w 331 -330 -312 0.0299505
w 332 331 313 0
w 332 331 -313 1
w 332 -331 313 1
w 332 -331 -313 0
w 333 332 314 0
w 333 332 -314 0
w 333 -332 314 0
w 333 -332 -314 1
w 334 333 315 0.052169
w 334 333 -315 0.423281
w 334 -333 315 0.451539
w 334 -333 -315 0.636375
w 335 334 316 0.957327
w 335 334 -316 0.217814
w 335 -334 316 0.806152
w 335 -334 -316 0.4693
w 336 335 317 1
w 336 335 -317 0
w 336 -335 317 0
w 336 -335 -317 0
w 337 336 318 0
w 337 336 -318 1
w 337 -336 318 1
w 337 -336 -318 1
w 338 337 319 0.641723
w 338 337 -319 0.335621
w 338 -337 319 0.268646
w 338 -337 -319 0.354243
w 339 338 320 0
w 339 338 -320 1
w 339 -338 320 0
w 339 -338 -320 0
w 340 339 321 0.72831
w 340 339 -321 0.793909
w 340 -339 321 0.419012
w 340 -339 -321 0.179849
w 341 340 322 1
w 341 340 -322 1
w 341 -340 322 0
w 341 -340 -322 0
w 342 341 323 0.886768
w 342 341 -323 0.840173
w 342 -341 323 0.936742
w 342 -341 -323 0.450456
w 343 324 0.200832
w 343 -324 0.749337
w 344 343 325 0.641728
w 344 343 -325 0.573334
w 344 -343 325 0.602414
w 344 -343 -325 0.283451
w 345 344 326 0.87106
w 345 344 -326 0.637695
w 345 -344 326 0.272021
w 345 -344 -326 0.313736
w 346 345 327 1
w 346 345 -327 0
w 346 -345 327 1
w 346 -345 -327 1
w 347 346 328 0.439383
w 347 346 -328 0.190004
w 347 -346 328 0.279668
w 347 -346 -328 0.59694
w 348 347 329 1
w 348 347 -329 0
w 348 -347 329 1
w 348 -347 -329 0
w 349 348 330 1
w 349 348 -330 1
w 349 -348 330 1
w 349 -348 -330 0
w 350 349 331 1
w 350 349 -331 0
w 350 -349 331 1
w 350 -349 -331 1
w 351 350 332 0.496617
w 351 350 -332 0.353752
w 351 -350 332 0.634104
w 351 -350 -332 0.768638
w 352 351 333 0.658743
w 352 351 -333 0.0504826
w 352 -351 333 0.722964
w 352 -351 -333 0.679114
w 353 352 334 0
w 353 352 -334 0
w 353 -352 334 0
w 353 -352 -334 1
w 354 353 335 0.57782
w 354 353 -335 0.779783
w 354 -353 335 0.276085
w 354 -353 -335 0.511476
w 355 354 336 0.676906
w 355 354 -336 0.381873
w 355 -354 336 0.859309
w 355 -354 -336 0.873211
w 356 355 337 0
w 356 355 -337 0
w 356 -355 337 0
w 356 -355 -337 1
w 357 356 338 0
w 357 356 -338 0
w 357 -356 338 1
w 357 -356 -338 0
w 358 357 339 0
w 358 357 -339 1
w 358 -357 339 0
w 358 -357 -339 0
w 359 358 340 0.552736
w 359 358 -340 0.252926
w 359 -358 340 0.0883135
w 359 -358 -340 0.404753
w 360 359 341 0.666134
w 360 359 -341 0.184536
w 360 -359 341 0.244447
w 360 -359 -341 0.17761
w 361 360 342 0.921353
w 361 360 -342 0.559483
w 361 -360 342 0.638163
w 361 -360 -342 0.794564